decision_x1=[0,2];
decision_x2=[0,2];
decision_x3=[0,2];
decision_x4=[0,2];
decision_x5=[0,2];
decision_x6=[0,2];
decision_x7=[0,2];
decision_x8=[0,2];
decision_x9=[0,2];
decision_x10=[0,2];
decision_x11=[0,2];
decision_x12=[0,2];
decision_x13=[0,2];
decision_x14=[0,2];
decision_x15=[0,2];
random_y1=[0,2];
random_y2=[0,2];
random_y3=[0,2];
constraint_x2_x1=[
0,1,0.76|
0,2,4.8|
1,0,5.4|
1,2,5.5|
2,0,1.3|
2,1,7.3|
];
constraint_x5_x1=[
0,1,5.3|
0,2,2|
1,0,9.5|
1,2,2.1|
2,0,9|
2,1,8|
];
constraint_x5_x2=[
0,1,3.9|
0,2,1.7|
1,0,8.1|
1,2,0.93|
2,0,8.6|
2,1,8|
];
constraint_x5_x3=[
0,1,8.5|
0,2,0.51|
1,0,7.7|
1,2,2.1|
2,0,8.1|
2,1,4.3|
];
constraint_x5_x4=[
0,1,3|
0,2,0.39|
1,0,9.6|
1,2,9.8|
2,0,8.5|
2,1,9.1|
];
constraint_x6_x1=[
0,1,2.7|
0,2,5.9|
1,0,5.7|
1,2,7.5|
2,0,3.3|
2,1,2.3|
];
constraint_x6_x5=[
0,1,6.3|
0,2,5.9|
1,0,1.9|
1,2,9|
2,0,1.2|
2,1,2.8|
];
constraint_x7_x4=[
0,1,0.63|
0,2,2.8|
1,0,2.8|
1,2,2.2|
2,0,1.3|
2,1,9.3|
];
constraint_x7_x6=[
0,1,7|
0,2,0.056|
1,0,7.4|
1,2,2|
2,0,4.7|
2,1,8.7|
];
constraint_x8_x1=[
0,1,1.7|
0,2,3.2|
1,0,9.5|
1,2,8|
2,0,7.5|
2,1,0.93|
];
constraint_x8_x2=[
0,1,3.4|
0,2,6.8|
1,0,8.3|
1,2,8.1|
2,0,4.3|
2,1,3.3|
];
constraint_x8_x4=[
0,1,9.1|
0,2,4.3|
1,0,0.31|
1,2,5.5|
2,0,2.3|
2,1,8.1|
];
constraint_x8_x6=[
0,1,6.5|
0,2,0.72|
1,0,4.1|
1,2,2.3|
2,0,7.5|
2,1,8.6|
];
constraint_x9_x2=[
0,1,1.4|
0,2,2.6|
1,0,8|
1,2,2.5|
2,0,3.3|
2,1,4.6|
];
constraint_x9_x3=[
0,1,5.2|
0,2,4.8|
1,0,9.9|
1,2,8|
2,0,1.1|
2,1,8.4|
];
constraint_x9_x5=[
0,1,9.4|
0,2,4.7|
1,0,5.5|
1,2,4.2|
2,0,0.76|
2,1,9.8|
];
constraint_x9_x6=[
0,1,2.3|
0,2,9|
1,0,9|
1,2,4.1|
2,0,8.7|
2,1,6.9|
];
constraint_x9_x7=[
0,1,7.8|
0,2,6.2|
1,0,6.1|
1,2,6|
2,0,8|
2,1,3.6|
];
constraint_x10_x1=[
0,1,8|
0,2,3.7|
1,0,3.2|
1,2,1.8|
2,0,1|
2,1,2.2|
];
constraint_x10_x2=[
0,1,2.5|
0,2,0.12|
1,0,4.5|
1,2,3.7|
2,0,6.6|
2,1,3|
];
constraint_x10_x3=[
0,1,8.3|
0,2,9.6|
1,0,4.9|
1,2,7.2|
2,0,9.6|
2,1,7.9|
];
constraint_x10_x4=[
0,1,5.3|
0,2,0.96|
1,0,8.9|
1,2,3.6|
2,0,8.6|
2,1,9.1|
];
constraint_x10_x7=[
0,1,2.6|
0,2,6.7|
1,0,6.5|
1,2,5.3|
2,0,7.7|
2,1,5.9|
];
constraint_x11_x1=[
0,1,7.2|
0,2,5|
1,0,4.4|
1,2,7.6|
2,0,1.1|
2,1,4.8|
];
constraint_x11_x2=[
0,1,1.6|
0,2,8.7|
1,0,1.4|
1,2,6.2|
2,0,3.6|
2,1,2.7|
];
constraint_x11_x3=[
0,1,7.9|
0,2,6.2|
1,0,6.8|
1,2,9.9|
2,0,9.9|
2,1,6.4|
];
constraint_x11_x4=[
0,1,9.7|
0,2,7.5|
1,0,5.6|
1,2,8.9|
2,0,6.8|
2,1,4.4|
];
constraint_x11_x5=[
0,1,2.1|
0,2,0.66|
1,0,0.68|
1,2,9.5|
2,0,3.8|
2,1,4.7|
];
constraint_x12_x3=[
0,1,6.9|
0,2,6.7|
1,0,7.8|
1,2,5.5|
2,0,7.4|
2,1,1.3|
];
constraint_x12_x6=[
0,1,4.9|
0,2,4.2|
1,0,8|
1,2,0.72|
2,0,6.1|
2,1,6.8|
];
constraint_x12_x7=[
0,1,8.4|
0,2,1.4|
1,0,6.4|
1,2,1.7|
2,0,7.4|
2,1,6.6|
];
constraint_x12_x9=[
0,1,7|
0,2,9.2|
1,0,5.5|
1,2,1.8|
2,0,5.4|
2,1,5.3|
];
constraint_x12_x10=[
0,1,3.3|
0,2,4.3|
1,0,1.7|
1,2,6.9|
2,0,3.8|
2,1,8.4|
];
constraint_x12_x11=[
0,1,5|
0,2,7.8|
1,0,7.7|
1,2,7.2|
2,0,9.2|
2,1,10|
];
constraint_x13_x1=[
0,1,7.4|
0,2,8.4|
1,0,0.33|
1,2,5.3|
2,0,4|
2,1,2.7|
];
constraint_x13_x2=[
0,1,2.1|
0,2,5.9|
1,0,2.4|
1,2,8|
2,0,8|
2,1,1.9|
];
constraint_x13_x4=[
0,1,1.5|
0,2,3.2|
1,0,7|
1,2,3.4|
2,0,6.4|
2,1,9.1|
];
constraint_x13_x6=[
0,1,7.3|
0,2,5.4|
1,0,9.7|
1,2,0.2|
2,0,3.6|
2,1,3.2|
];
constraint_x13_x10=[
0,1,0.058|
0,2,2|
1,0,4.2|
1,2,5.2|
2,0,2.3|
2,1,6.2|
];
constraint_x14_x3=[
0,1,6|
0,2,8.3|
1,0,8.6|
1,2,6.2|
2,0,1.5|
2,1,8.2|
];
constraint_x14_x5=[
0,1,2|
0,2,4.6|
1,0,7.1|
1,2,9.5|
2,0,5.7|
2,1,8.6|
];
constraint_x14_x7=[
0,1,5.5|
0,2,5.2|
1,0,0.74|
1,2,9.2|
2,0,4|
2,1,5.8|
];
constraint_x14_x8=[
0,1,6.3|
0,2,7.6|
1,0,5.7|
1,2,6.9|
2,0,7.3|
2,1,7.3|
];
constraint_x14_x10=[
0,1,0.29|
0,2,5.2|
1,0,2.4|
1,2,8.7|
2,0,2.6|
2,1,3.7|
];
constraint_x14_x12=[
0,1,6.1|
0,2,9.3|
1,0,2.6|
1,2,8.5|
2,0,9.5|
2,1,5|
];
constraint_x14_x13=[
0,1,9.9|
0,2,1.6|
1,0,1.8|
1,2,4.4|
2,0,3.8|
2,1,7.2|
];
constraint_x15_x2=[
0,1,1.7|
0,2,6.5|
1,0,3.5|
1,2,0.91|
2,0,6.9|
2,1,6.4|
];
constraint_x15_x7=[
0,1,5.3|
0,2,7.4|
1,0,7.7|
1,2,4.3|
2,0,2.7|
2,1,6.1|
];
constraint_x15_x8=[
0,1,0.83|
0,2,1.4|
1,0,1.7|
1,2,5.9|
2,0,1.7|
2,1,2.7|
];
constraint_x15_x9=[
0,1,9.7|
0,2,8.7|
1,0,6.8|
1,2,5.4|
2,0,2.4|
2,1,1.8|
];
constraint_x15_x10=[
0,1,8.4|
0,2,7|
1,0,9.8|
1,2,1.1|
2,0,6.6|
2,1,4.3|
];
constraint_x15_x12=[
0,1,9.1|
0,2,1.2|
1,0,1.6|
1,2,3.1|
2,0,4.8|
2,1,9.1|
];
constraint_x15_x14=[
0,1,1|
0,2,7.8|
1,0,1|
1,2,4.7|
2,0,3.1|
2,1,9.6|
];
constraint_x1_y1=[
0,0,2.4|
0,1,5|
0,2,8.7|
1,0,8.6|
1,1,5.7|
1,2,1.4|
2,0,2.8|
2,1,8.8|
2,2,7.9|
];
constraint_x2_y2=[
0,0,6.6|
0,1,6.6|
0,2,1.2|
1,0,8.7|
1,1,5.6|
1,2,3.8|
2,0,9|
2,1,6.6|
2,2,1.8|
];
constraint_x3_y3=[
0,0,6.3|
0,1,8.2|
0,2,9.4|
1,0,0.18|
1,1,7|
1,2,6.4|
2,0,6.4|
2,1,9.7|
2,2,5.2|
];
initial_distribution_y1=[0.52,0.32,0.16];
initial_distribution_y2=[0.13,0.088,0.78];
initial_distribution_y3=[0.46,0.23,0.31];
transition_y1=[
0.54,0.38,0.08|
0.24,0.16,0.6|
0.4,0.44,0.16|
];
transition_y2=[
0.3,0.32,0.38|
0.21,0.65,0.14|
0.34,0.19,0.47|
];
transition_y3=[
0.58,0.035,0.39|
0.089,0.62,0.29|
0.52,0.46,0.024|
];
